17	4	3
16	16	14	15	29	43	37	
0	0	0	0	0	4	4	8	6	5	6	3	2	3	4
6	3	5	9	3	4	10	8	8	6	2	1	5
6	10	2	7	0	9	4	10	4	4	2	1	11
8	0	2	6	10	9	1	9	3	5	8	3	7	8	16
5	9	3	5	9	1	1	6	9	8	5	1	6
200	10	9	5	0	5	1	8	2	7	2	1	17
50	0	6	7	0	7	10	2	4	8	7	2	9	17
125	5	5	0	2	6	6	10	5	9	4	1	17
125	0	8	0	7	7	7	5	6	9	10	3	10	12	14
150	7	9	5	9	4	10	10	9	9	7	3	13	15	17
75	3	6	4	0	3	3	8	10	5	4	2	17	17
150	8	1	5	0	2	2	4	3	6	1	1	17
4	6	0	6	3	10	2	6	10	6	4	1	17
5	9	4	3	8	3	3	1	8	8	9	1	17
6	0	8	0	8	7	1	9	7	10	7	1	17
6	0	10	4	0	3	2	10	1	2	4	1	17
0	0	0	0	0	5	3	6	8	6	1	0
